processors         * 1 1 # manually assign processors to spatial regions
atom_style         meso
dimension          2
newton             on
boundary           f f p
units              lj
read_data          data.initial

variable           h equal 0.03
variable           c equal 10.0 # soundspeed for Tait's EOS
variable           dt equal 0.1*${h}/${c} # upper limit of timestep based on CFL-like criterion
variable           nrun equal 30000
# 35000
# => add thermo: lost warn
#variable           nrun equal 15.0/${dt} # roughly estimate number of timesteps needed for 7.5 seconds
#variable           nrun equal 15.0/${dt} # roughly estimate number of timesteps needed for 7.5 seconds

group              bc    type 2 # assign group name "bc" to boundary particles (type 2)
group              water type 1 # assign group name "water" to water particles (type 1)

# use hybrid pairstyle which does density summation with cutoff ${h} every timestep (1)
pair_style         hybrid/overlay sph/rhosum 1 sph/taitwater
pair_coeff         * * sph/taitwater 1000.0 ${c} 1.0 ${h} # use target density of 1000, soundspeed ${c} for Tait's EOS
pair_coeff         1 1 sph/rhosum ${h}

fix                gfix water gravity -9.81 vector 0 1 0 # add gravity. This fix also computes potential energy of mass in gravity field.
fix                2d_fix all enforce2d

compute            rho_peratom all meso/rho/atom
compute            e_peratom all meso/e/atom
compute            esph all reduce sum c_e_peratom
compute            ke all ke
variable           etot equal c_esph+c_ke+f_gfix

#                                     adjust nevery | min. allowed dt | max. allowed dt | max. travel distance per dt # // ${dt} ~= CFL criterion 0.1*h/c
fix                dtfix all dt/reset 1               NULL              ${dt}             0.0005 units box # use a variable timestep

# time-integrate position, velocities, internal energy and density of water particles
fix                integrate_water_fix water meso

# time-integrate only internal energy and density of boundary particles
fix                integrate_bc_fix bc meso/stationary
dump               dump_id all custom 100000 dump.*.lammpstrj id type xs ys zs
dump_modify        dump_id first yes
thermo             50
thermo_style       custom step dt ke 
# c_esph v_etot f_gfix press time f_dtfix
thermo_modify      norm no
thermo_modify      lost warn

neigh_modify       every 5 delay 0 check no
variable           skin equal 0.3*${h}
neighbor           ${skin} bin # set Verlet list skin distance

#timer              off
run                ${nrun}

# dumps:
#dump               dump_id all netcdf 2000 dump.*.cdf id type xs ys zs 
#vtk: dump dmpvtk all vtk 2000 dump*.myforce.vtk id type vx fx
#dump               dump_id all custom 10000 dump.*.lammpstrj id type xs ys zs vx vy vz
#ok: dump               dump_id all custom 1000 dump.*.lammpstrj id type xs ys zs c_rho_peratom c_e_peratom fx fy
#jpg: dump               dump_id all image 1000 dump.*.jpg type type
# dump d0 all image 100 dump.*.jpg type type
# dump d1 mobile image 500 snap.*.png element element ssao yes 4539 0.6
# dump d2 all image 200 img-*.ppm type type zoom 2.5 adiam 1.5 size 1280 720
# dump m0 all movie 1000 movie.mpg type type size 640 480
# dump m1 all movie 1000 movie.avi type type size 640 480
# dump m2 all movie 100 movie.m4v type type zoom 1.8 adiam v_value size 1280 720
#dump                   img all image 20000 test.*.ppm type type view 90 0 zoom 2
#png dump               dump_id all image 100 dump.*.png id type xs ys zs c_rho_peratom c_e_peratom fx fy

